
===== New CPLEX run =====
Instance: /home/yorig/tuner/mpils-tests/instances/miplib/easy/supportcase33.mps
Config: /scratch/yorig/mpils-results-grid-seconds-5-watchdog-mip-start/easy/8proc/seed-4/10_supportcase33_seed-4_20260504_032501/expansion/config_param_CPXPARAM_Preprocessing_BoundStrength_0_iter_3.prm
========================

Selected objective sense:  MINIMIZE
Selected objective  name:  obj
Selected RHS        name:  rhs
Selected bound      name:  bnd
Wall watchdog: enabled factor=1 grace=1 limit=6 seconds
Version identifier: 22.1.2.0 | 2024-11-26 | 0edbb82fd
CPXPARAM_Threads                                 8
CPXPARAM_Parallel                                1
CPXPARAM_MIP_Cuts_Cliques                        3
CPXPARAM_MIP_Cuts_Covers                         2
CPXPARAM_Preprocessing_BoundStrength             0
CPXPARAM_MIP_Cuts_Implied                        -1
CPXPARAM_MIP_Cuts_GUBCovers                      -1
CPXPARAM_MIP_Limits_GomoryCand                   800
CPXPARAM_MIP_Cuts_Gomory                         2
CPXPARAM_MIP_Cuts_PathCut                        -1
CPXPARAM_MIP_Cuts_MIRCut                         2
CPXPARAM_MIP_Cuts_Disjunctive                    3
CPXPARAM_Emphasis_MIP                            4
CPXPARAM_TimeLimit                               5
Found incumbent of value 0.000000 after 0.00 sec. (2.20 ticks)
Tried aggregator 2 times.
MIP Presolve eliminated 17181 rows and 13049 columns.
MIP Presolve modified 51020 coefficients.
Aggregator did 7 substitutions.
Reduced MIP has 3301 rows, 7141 columns, and 57539 nonzeros.
Reduced MIP has 7061 binaries, 80 generals, 0 SOSs, and 0 indicators.
Presolve time = 0.10 sec. (197.08 ticks)
Probing fixed 1040 vars, tightened 0 bounds.
Probing changed sense of 39 constraints.
Probing time = 0.16 sec. (234.14 ticks)
Tried aggregator 2 times.
MIP Presolve eliminated 991 rows and 1040 columns.
MIP Presolve modified 197 coefficients.
Aggregator did 11 substitutions.
Reduced MIP has 2299 rows, 6090 columns, and 46797 nonzeros.
Reduced MIP has 6010 binaries, 80 generals, 0 SOSs, and 0 indicators.
Presolve time = 0.02 sec. (33.48 ticks)
Probing fixed 36 vars, tightened 0 bounds.
Probing time = 0.10 sec. (152.46 ticks)
Tried aggregator 1 time.
Detecting symmetries...
MIP Presolve eliminated 7 rows and 36 columns.
Reduced MIP has 2292 rows, 6054 columns, and 46496 nonzeros.
Reduced MIP has 5974 binaries, 80 generals, 0 SOSs, and 0 indicators.
Presolve time = 0.02 sec. (23.70 ticks)
Probing time = 0.01 sec. (12.79 ticks)
Clique table members: 29825.
MIP emphasis: hidden feasible solutions.
MIP search method: dynamic search.
Parallel mode: deterministic, using up to 8 threads.
Root relaxation solution time = 0.05 sec. (103.26 ticks)

        Nodes                                         Cuts/
   Node  Left     Objective  IInf  Best Integer    Best Bound    ItCnt     Gap

*     0+    0                            0.0000    -1075.0000              --- 
      0     0     -462.8425   108        0.0000     -462.8425     1474     --- 
*     0+    0                         -230.0000     -462.8425           101.24%
      0     0     -445.0000    88     -230.0000     Cuts: 145     1885   93.48%
      0     0     -441.1905   130     -230.0000     Cuts: 101     2436   91.82%
*     0+    0                         -270.0000     -441.1905            63.40%
      0     0     -439.7727   107     -270.0000     Cuts: 142     3013   62.88%
      0     0     -425.0000    83     -270.0000      Cuts: 51     3368   57.41%
      0     0     -425.0000    91     -270.0000      Cuts: 30     3534   57.41%
Detecting symmetries...
      0     0     -425.0000    59     -270.0000       Cuts: 3     3536   57.41%
*     0+    0                         -310.0000     -425.0000            37.10%
      0     0  -1.00000e+75     0     -310.0000     -425.0000     3536   37.10%
      0     0     -425.0000    78     -310.0000     Cuts: 149     3839   37.10%
Detecting symmetries...
      0     2     -425.0000    79     -310.0000     -425.0000     3839   37.10%
Elapsed time = 2.01 sec. (3170.71 ticks, tree = 0.02 MB, solutions = 3)
     83    51     -364.9286    60     -310.0000     -424.2661     9727   36.86%
    168    82     -405.0000    99     -310.0000     -420.0000    20017   35.48%
    224   109     -374.5794    69     -310.0000     -420.0000    25478   35.48%
    250   135     -330.0000    25     -310.0000     -420.0000    33072   35.48%
    383   198     -331.8084    85     -310.0000     -420.0000    37649   35.48%
    523   277        cutoff           -310.0000     -420.0000    45779   35.48%
    614   346     -348.3333    52     -310.0000     -405.0000    56000   30.65%
    772   421     -315.0000    30     -310.0000     -405.0000    67629   30.65%
    953   477     -363.3929    98     -310.0000     -405.0000    77318   30.65%
*  1559   900      integral     0     -315.0000     -405.0000   126416   28.57%
Elapsed time = 3.94 sec. (6275.11 ticks, tree = 10.36 MB, solutions = 4)
   2068  1052     -355.0000    37     -315.0000     -405.0000   150110   28.57%
*  2463  1241      integral     0     -320.0000     -389.0311   169383   21.57%

Clique cuts applied:  2
Cover cuts applied:  46
Mixed integer rounding cuts applied:  333
Zero-half cuts applied:  16
Gomory fractional cuts applied:  11
Disjunctive cuts applied:  1
Cone linearizations applied:  0

Root node processing (before b&c):
  Real time             =    1.97 sec. (3141.13 ticks)
Parallel b&c, 8 threads:
  Real time             =    3.04 sec. (4879.01 ticks)
  Sync time (average)   =    0.65 sec.
  Wait time (average)   =    0.00 sec.
                          ------------
Total (root+branch&cut) =    5.00 sec. (8020.14 ticks)
Gap: 20.31%
Upper bound: -320
Lower bound: -385
Termination status: Normal
End of CPLEX run. Time: 5.00841 seconds

===== New CPLEX run =====
Instance: /home/yorig/tuner/mpils-tests/instances/miplib/easy/supportcase33.mps
Config: /scratch/yorig/mpils-results-grid-seconds-5-watchdog-mip-start/easy/8proc/seed-4/10_supportcase33_seed-4_20260504_032501/expansion/config_param_CPXPARAM_Preprocessing_BoundStrength_1_iter_3.prm
========================

Selected objective sense:  MINIMIZE
Selected objective  name:  obj
Selected RHS        name:  rhs
Selected bound      name:  bnd
Wall watchdog: enabled factor=1 grace=1 limit=6 seconds
Version identifier: 22.1.2.0 | 2024-11-26 | 0edbb82fd
CPXPARAM_Threads                                 8
CPXPARAM_Parallel                                1
CPXPARAM_MIP_Cuts_Cliques                        3
CPXPARAM_MIP_Cuts_Covers                         2
CPXPARAM_Preprocessing_BoundStrength             1
CPXPARAM_MIP_Cuts_Implied                        -1
CPXPARAM_MIP_Cuts_GUBCovers                      -1
CPXPARAM_MIP_Limits_GomoryCand                   800
CPXPARAM_MIP_Cuts_Gomory                         2
CPXPARAM_MIP_Cuts_PathCut                        -1
CPXPARAM_MIP_Cuts_MIRCut                         2
CPXPARAM_MIP_Cuts_Disjunctive                    3
CPXPARAM_Emphasis_MIP                            4
CPXPARAM_TimeLimit                               5
Found incumbent of value 0.000000 after 0.00 sec. (2.20 ticks)
Tried aggregator 2 times.
MIP Presolve eliminated 17556 rows and 13423 columns.
MIP Presolve modified 14568 coefficients.
Aggregator did 11 substitutions.
Reduced MIP has 2922 rows, 6763 columns, and 53605 nonzeros.
Reduced MIP has 6683 binaries, 80 generals, 0 SOSs, and 0 indicators.
Presolve time = 0.09 sec. (158.17 ticks)
Probing fixed 667 vars, tightened 0 bounds.
Probing changed sense of 39 constraints.
Probing time = 0.16 sec. (249.39 ticks)
Tried aggregator 2 times.
Detecting symmetries...
MIP Presolve eliminated 639 rows and 667 columns.
MIP Presolve modified 197 coefficients.
Aggregator did 7 substitutions.
Reduced MIP has 2276 rows, 6089 columns, and 46722 nonzeros.
Reduced MIP has 6009 binaries, 80 generals, 0 SOSs, and 0 indicators.
Presolve time = 0.03 sec. (37.79 ticks)
Probing fixed 1 vars, tightened 0 bounds.
Probing time = 0.03 sec. (37.88 ticks)
Clique table members: 25145.
MIP emphasis: hidden feasible solutions.
MIP search method: dynamic search.
Parallel mode: deterministic, using up to 8 threads.
Root relaxation solution time = 0.06 sec. (117.91 ticks)

        Nodes                                         Cuts/
   Node  Left     Objective  IInf  Best Integer    Best Bound    ItCnt     Gap

*     0+    0                            0.0000    -1075.0000              --- 
      0     0     -462.8425   108        0.0000     -462.8425     1467     --- 
*     0+    0                         -155.0000     -462.8425           198.61%
      0     0     -442.5000   138     -155.0000     Cuts: 173     2013  185.48%
      0     0     -440.0000   115     -155.0000     Cuts: 171     2355  183.87%
*     0+    0                         -215.0000     -440.0000           104.65%
      0     0     -440.0000    87     -215.0000      Cuts: 39     2611  104.65%
*     0+    0                         -235.0000     -440.0000            87.23%
      0     0  -1.00000e+75     0     -235.0000     -440.0000     2611   87.23%
      0     0     -425.0000   104     -235.0000      Cuts: 33     2853   80.85%
      0     0     -425.0000   109     -235.0000     Cuts: 126     3219   80.85%
Detecting symmetries...
      0     0     -425.0000    80     -235.0000      Cuts: 72     3676   80.85%
*     0+    0                         -240.0000     -425.0000            77.08%
*     0+    0                         -270.0000     -425.0000            57.41%
      0     0  -1.00000e+75     0     -270.0000     -425.0000     3676   57.41%
      0     0     -425.0000    95     -270.0000     Cuts: 139     4015   57.41%
*     0+    0                         -285.0000     -425.0000            49.12%
      0     0  -1.00000e+75     0     -285.0000     -425.0000     4015   49.12%
Detecting symmetries...
      0     2     -425.0000    69     -285.0000     -425.0000     4015   49.12%
Elapsed time = 2.27 sec. (3330.68 ticks, tree = 0.02 MB, solutions = 6)
*    75+    1                         -290.0000     -425.0000            46.55%
     89    51    infeasible           -290.0000     -420.0000     9617   44.83%
    234   140     -365.0650    69     -290.0000     -420.0000    21421   44.83%
    525   295     -322.7578    46     -290.0000     -420.0000    29903   44.83%
    569   374     -355.0000    56     -290.0000     -420.0000    36361   44.83%
    756   438     -381.0526    66     -290.0000     -417.4359    41201   43.94%
    957   552     -330.0000    52     -290.0000     -405.0000    52293   39.66%
   1166   640     -400.0000    97     -290.0000     -405.0000    62099   39.66%
   1300   784     -346.5389    65     -290.0000     -405.0000    69875   39.66%
   1454   835     -335.0000    24     -290.0000     -405.0000    74541   39.66%
   2187  1361     -300.3333   105     -290.0000     -405.0000   117210   39.66%
Elapsed time = 4.28 sec. (6459.71 ticks, tree = 15.45 MB, solutions = 7)
   2882  1806     -363.3333    62     -290.0000     -405.0000   153404   39.66%

Clique cuts applied:  6
Cover cuts applied:  56
Mixed integer rounding cuts applied:  277
Zero-half cuts applied:  22
Gomory fractional cuts applied:  15
Disjunctive cuts applied:  2
Cone linearizations applied:  0

Root node processing (before b&c):
  Real time             =    2.23 sec. (3300.31 ticks)
Parallel b&c, 8 threads:
  Real time             =    2.78 sec. (4327.50 ticks)
  Sync time (average)   =    0.60 sec.
  Wait time (average)   =    0.00 sec.
                          ------------
Total (root+branch&cut) =    5.01 sec. (7627.81 ticks)
Gap: 39.66%
Upper bound: -290
Lower bound: -405
Termination status: Normal
End of CPLEX run. Time: 5.01052 seconds

===== New CPLEX run =====
Instance: /home/yorig/tuner/mpils-tests/instances/miplib/easy/supportcase33.mps
Config: /scratch/yorig/mpils-results-grid-seconds-5-watchdog-mip-start/easy/8proc/seed-4/10_supportcase33_seed-4_20260504_032501/expansion/config_param_CPXPARAM_Preprocessing_CoeffReduce_0_iter_3.prm
========================

Selected objective sense:  MINIMIZE
Selected objective  name:  obj
Selected RHS        name:  rhs
Selected bound      name:  bnd
Wall watchdog: enabled factor=1 grace=1 limit=6 seconds
Version identifier: 22.1.2.0 | 2024-11-26 | 0edbb82fd
CPXPARAM_Threads                                 8
CPXPARAM_Parallel                                1
CPXPARAM_MIP_Cuts_Cliques                        3
CPXPARAM_Preprocessing_CoeffReduce               0
CPXPARAM_MIP_Cuts_Covers                         2
CPXPARAM_MIP_Cuts_Implied                        -1
CPXPARAM_MIP_Cuts_GUBCovers                      -1
CPXPARAM_MIP_Limits_GomoryCand                   800
CPXPARAM_MIP_Cuts_Gomory                         2
CPXPARAM_MIP_Cuts_PathCut                        -1
CPXPARAM_MIP_Cuts_MIRCut                         2
CPXPARAM_MIP_Cuts_Disjunctive                    3
CPXPARAM_Emphasis_MIP                            4
CPXPARAM_TimeLimit                               5
Found incumbent of value 0.000000 after 0.00 sec. (2.20 ticks)
Tried aggregator 2 times.
MIP Presolve eliminated 17555 rows and 13423 columns.
MIP Presolve modified 5008 coefficients.
Aggregator did 10 substitutions.
Reduced MIP has 2924 rows, 6764 columns, and 53611 nonzeros.
Reduced MIP has 6683 binaries, 81 generals, 0 SOSs, and 0 indicators.
Presolve time = 0.08 sec. (161.86 ticks)
Probing fixed 666 vars, tightened 0 bounds.
Probing changed sense of 39 constraints.
Probing time = 0.15 sec. (224.10 ticks)
Cover probing fixed 0 vars, tightened 3 bounds.
Tried aggregator 2 times.
Detecting symmetries...
MIP Presolve eliminated 638 rows and 666 columns.
MIP Presolve modified 144 coefficients.
Aggregator did 7 substitutions.
Reduced MIP has 2279 rows, 6091 columns, and 46736 nonzeros.
Reduced MIP has 6010 binaries, 81 generals, 0 SOSs, and 0 indicators.
Presolve time = 0.03 sec. (38.54 ticks)
Probing time = 0.01 sec. (13.18 ticks)
Clique table members: 27499.
MIP emphasis: hidden feasible solutions.
MIP search method: dynamic search.
Parallel mode: deterministic, using up to 8 threads.
Root relaxation solution time = 0.05 sec. (96.56 ticks)

        Nodes                                         Cuts/
   Node  Left     Objective  IInf  Best Integer    Best Bound    ItCnt     Gap

*     0+    0                            0.0000    -1075.0000              --- 
      0     0     -462.8425   106        0.0000     -462.8425     1460     --- 
*     0+    0                          -65.0000     -462.8425           612.07%
      0     0     -442.5000   140      -65.0000     Cuts: 136     1821  580.77%
*     0+    0                         -100.0000     -442.5000           342.50%
      0     0     -440.0000   105     -100.0000      Cuts: 49     2237  340.00%
*     0+    0                         -235.0000     -440.0000            87.23%
      0     0     -440.0000   119     -235.0000      Cuts: 30     2584   87.23%
*     0+    0                         -245.0000     -440.0000            79.59%
      0     0  -1.00000e+75     0     -245.0000     -440.0000     2584   79.59%
      0     0     -440.0000    88     -245.0000      Cuts: 16     2923   79.59%
*     0+    0                         -255.0000     -440.0000            72.55%
      0     0     -440.0000   102     -255.0000      Cuts: 64     3487   72.55%
Detecting symmetries...
*     0+    0                         -275.0000     -440.0000            60.00%
Detecting symmetries...
      0     2     -440.0000    90     -275.0000     -440.0000     3492   60.00%
Elapsed time = 1.98 sec. (2912.97 ticks, tree = 0.02 MB, solutions = 6)
    133    59     -333.9837    61     -275.0000     -440.0000     9962   60.00%
    445   191     -375.8965    77     -275.0000     -439.6371    19234   59.87%
    571   267     -404.3182    61     -275.0000     -436.1995    27690   58.62%
*   613+  285                         -280.0000     -436.1995            55.79%
    764   332     -340.8502    75     -280.0000     -436.1995    32022   55.79%
    993   510     -293.8889    10     -280.0000     -431.3422    42930   54.05%
   1182   588     -340.0000    52     -280.0000     -431.3422    51948   54.05%
*  1383   665      integral     0     -290.0000     -426.6901    58403   47.13%
   1606   811     -400.0000    72     -290.0000     -426.6901    65292   47.13%
   1677   947    infeasible           -290.0000     -425.4878    74685   46.72%
*  1691+  935                         -300.0000     -425.4878            41.83%
   2337  1223     -395.0000    57     -300.0000     -410.0000   112341   36.67%
Elapsed time = 4.02 sec. (5942.42 ticks, tree = 14.28 MB, solutions = 10)
*  2356+ 1075                         -310.0000     -410.0000            32.26%
*  2754  1282      integral     0     -320.0000     -405.0000   133199   26.56%
   3003  1271     -380.5888    74     -320.0000     -405.0000   147278   26.56%

Performing restart 1

Repeating presolve.
Tried aggregator 2 times.
MIP Presolve eliminated 38 rows and 27 columns.
MIP Presolve modified 22457 coefficients.
Aggregator did 1 substitutions.
Reduced MIP has 2238 rows, 6063 columns, and 34479 nonzeros.
Reduced MIP has 5982 binaries, 81 generals, 0 SOSs, and 0 indicators.
Presolve time = 0.03 sec. (49.50 ticks)
Represolve time = 0.15 sec. (170.60 ticks)

Root node processing (before b&c):
  Real time             =    1.95 sec. (2888.64 ticks)
Parallel b&c, 8 threads:
  Real time             =    3.05 sec. (4646.46 ticks)
  Sync time (average)   =    0.00 sec.
  Wait time (average)   =    0.00 sec.
                          ------------
Total (root+branch&cut) =    5.00 sec. (7535.10 ticks)
Gap: 26.56%
Upper bound: -320
Lower bound: -405
Termination status: Normal
End of CPLEX run. Time: 5.00505 seconds

===== New CPLEX run =====
Instance: /home/yorig/tuner/mpils-tests/instances/miplib/easy/supportcase33.mps
Config: /scratch/yorig/mpils-results-grid-seconds-5-watchdog-mip-start/easy/8proc/seed-4/10_supportcase33_seed-4_20260504_032501/expansion/config_param_CPXPARAM_Preprocessing_CoeffReduce_1_iter_3.prm
========================

Selected objective sense:  MINIMIZE
Selected objective  name:  obj
Selected RHS        name:  rhs
Selected bound      name:  bnd
Wall watchdog: enabled factor=1 grace=1 limit=6 seconds
Version identifier: 22.1.2.0 | 2024-11-26 | 0edbb82fd
CPXPARAM_Threads                                 8
CPXPARAM_Parallel                                1
CPXPARAM_MIP_Cuts_Cliques                        3
CPXPARAM_Preprocessing_CoeffReduce               1
CPXPARAM_MIP_Cuts_Covers                         2
CPXPARAM_MIP_Cuts_Implied                        -1
CPXPARAM_MIP_Cuts_GUBCovers                      -1
CPXPARAM_MIP_Limits_GomoryCand                   800
CPXPARAM_MIP_Cuts_Gomory                         2
CPXPARAM_MIP_Cuts_PathCut                        -1
CPXPARAM_MIP_Cuts_MIRCut                         2
CPXPARAM_MIP_Cuts_Disjunctive                    3
CPXPARAM_Emphasis_MIP                            4
CPXPARAM_TimeLimit                               5
Found incumbent of value 0.000000 after 0.00 sec. (2.20 ticks)
Tried aggregator 2 times.
MIP Presolve eliminated 17534 rows and 13402 columns.
MIP Presolve modified 7360 coefficients.
Aggregator did 8 substitutions.
Reduced MIP has 2947 rows, 6787 columns, and 53830 nonzeros.
Reduced MIP has 6706 binaries, 81 generals, 0 SOSs, and 0 indicators.
Presolve time = 0.09 sec. (157.18 ticks)
Probing fixed 688 vars, tightened 0 bounds.
Probing changed sense of 39 constraints.
Probing time = 0.15 sec. (222.13 ticks)
Tried aggregator 2 times.
MIP Presolve eliminated 660 rows and 688 columns.
MIP Presolve modified 354 coefficients.
Aggregator did 9 substitutions.
Reduced MIP has 2278 rows, 6090 columns, and 46726 nonzeros.
Reduced MIP has 6009 binaries, 81 generals, 0 SOSs, and 0 indicators.
Presolve time = 0.02 sec. (33.90 ticks)
Probing time = 0.01 sec. (12.99 ticks)
Tried aggregator 1 time.
Detecting symmetries...
MIP Presolve modified 488 coefficients.
Reduced MIP has 2278 rows, 6090 columns, and 46726 nonzeros.
Reduced MIP has 6009 binaries, 81 generals, 0 SOSs, and 0 indicators.
Presolve time = 0.02 sec. (24.72 ticks)
Probing time = 0.01 sec. (12.83 ticks)
Clique table members: 27769.
MIP emphasis: hidden feasible solutions.
MIP search method: dynamic search.
Parallel mode: deterministic, using up to 8 threads.
Root relaxation solution time = 0.06 sec. (117.35 ticks)

        Nodes                                         Cuts/
   Node  Left     Objective  IInf  Best Integer    Best Bound    ItCnt     Gap

*     0+    0                            0.0000    -1075.0000              --- 
      0     0     -462.8425   117        0.0000     -462.8425     1484     --- 
*     0+    0                         -150.0000     -462.8425           208.56%
      0     0     -445.0000   121     -150.0000      Cuts: 56     1783  196.67%
      0     0     -442.5000   122     -150.0000      Cuts: 57     2288  195.00%
      0     0     -442.2727   156     -150.0000      Cuts: 78     2619  194.85%
*     0+    0                         -165.0000     -442.2727           168.04%
*     0+    0                         -175.0000     -442.2727           152.73%
      0     0  -1.00000e+75     0     -175.0000     -442.2727     2619  152.73%
      0     0     -442.1429   129     -175.0000      Cuts: 61     2818  152.65%
      0     0     -442.0000   138     -175.0000      Cuts: 32     2939  152.57%
Detecting symmetries...
      0     0     -440.9091   131     -175.0000      Cuts: 42     3174  151.95%
*     0+    0                         -190.0000     -440.9091           132.06%
      0     0  -1.00000e+75     0     -190.0000     -440.9091     3174  132.06%
      0     0     -430.0000   122     -190.0000      Cuts: 58     3389  126.32%
*     0+    0                         -200.0000     -430.0000           115.00%
      0     0     -430.0000   114     -200.0000      Cuts: 41     3695  115.00%
      0     0     -430.0000   144     -200.0000      Cuts: 28     3915  115.00%
*     0+    0                         -215.0000     -430.0000           100.00%
      0     0  -1.00000e+75     0     -215.0000     -430.0000     3915  100.00%
      0     0     -425.0000   123     -215.0000      Cuts: 10     4291   97.67%
      0     0     -424.3750   114     -215.0000      Cuts: 47     4563   97.38%
      0     0     -423.7500   125     -215.0000      Cuts: 34     4670   97.09%
      0     0     -422.4238   129     -215.0000      Cuts: 30     4876   96.48%
      0     0     -422.0588   133     -215.0000      Cuts: 21     5086   96.31%
*     0+    0                         -230.0000     -422.0588            83.50%
      0     0     -419.4149   120     -230.0000      Cuts: 19     5258   82.35%
      0     0     -417.3684   150     -230.0000      Cuts: 26     5416   81.46%
      0     0     -417.3684   157     -230.0000      Cuts: 13     5459   81.46%
*     0+    0                         -240.0000     -417.3684            73.90%
Detecting symmetries...
      0     2     -417.3684   117     -240.0000     -417.3684     5459   73.90%
Elapsed time = 3.34 sec. (5027.04 ticks, tree = 0.02 MB, solutions = 8)
*    29+    4                         -250.0000     -417.1429            66.86%
*    44+    4                         -275.0000     -417.1429            51.69%
    122    68     -400.0000    60     -275.0000     -417.1429    12299   51.69%
    369   198     -343.9762    69     -275.0000     -413.7500    24181   50.45%
    731   351     -360.0000    36     -275.0000     -413.7500    32444   50.45%
*   787   361      integral     0     -280.0000     -413.7500    32916   47.77%
*   850+  427                         -290.0000     -410.0000            41.38%
*   856   452      integral     0     -315.0000     -410.0000    37710   30.16%
   1139   520     -379.2308    60     -315.0000     -405.0000    48053   28.57%
   1231   624     -325.0000    39     -315.0000     -405.0000    59247   28.57%
   1274   639     -370.7692    77     -315.0000     -405.0000    61246   28.57%
   1533   709     -349.9500    49     -315.0000     -405.0000    65688   28.57%
   1734   813    infeasible           -315.0000     -405.0000    75232   28.57%

Clique cuts applied:  1
Cover cuts applied:  41
Mixed integer rounding cuts applied:  187
Zero-half cuts applied:  24
Gomory fractional cuts applied:  3
Disjunctive cuts applied:  1
Cone linearizations applied:  0

Root node processing (before b&c):
  Real time             =    3.29 sec. (4984.87 ticks)
Parallel b&c, 8 threads:
  Real time             =    1.72 sec. (2652.88 ticks)
  Sync time (average)   =    0.34 sec.
  Wait time (average)   =    0.00 sec.
                          ------------
Total (root+branch&cut) =    5.01 sec. (7637.75 ticks)
Gap: 28.57%
Upper bound: -315
Lower bound: -405
Termination status: Normal
End of CPLEX run. Time: 5.0148 seconds
